WARNING: using JuMP.getdual in module Main conflicts with an existing identifier.
  [nonlinear] <nonlin>: (((-3.000000) * <_var0_>) + (7.000000 * <_var1_>) + ((-5.000000) * <_var3_>) + (1.000000 * <_var4_>) + (1.000000 * <_var5_>) + (2.000000 * <_var7_>) + ((-1.000000) * <_var8_>) + ((-1.000000) * <_var9_>) + ((-9.000000) * <_var10_>) + (3.000000 * <_var11_>) + (5.000000 * <_var12_>) + (1.000000 * <_var15_>) + (7.000000 * <_var16_>) + ((-7.000000) * <_var17_>) + ((-4.000000) * <_var18_>) + ((-6.000000) * <_var19_>)) <= -5;
violation: right hand side is violated by 5 (scaled: 5)
all 1 solutions given by solution candidate storage are infeasible

presolving:
(round 1, fast)       0 del vars, 0 del conss, 0 add conss, 0 chg bounds, 0 chg sides, 0 chg coeffs, 10001 upgd conss, 0 impls, 0 clqs
(round 2, fast)       0 del vars, 0 del conss, 0 add conss, 15006 chg bounds, 0 chg sides, 0 chg coeffs, 10001 upgd conss, 0 impls, 0 clqs
presolving (3 rounds: 3 fast, 1 medium, 1 exhaustive):
 0 deleted vars, 0 deleted constraints, 0 added constraints, 15006 tightened bounds, 0 added holes, 0 changed sides, 0 changed coefficients
 0 implications, 0 cliques
presolved problem has 15006 variables (0 bin, 0 int, 0 impl, 15006 cont) and 10001 constraints
  10000 constraints of type <linear>
      1 constraints of type <quadratic>
Presolving Time: 69.95

  node  | left  |LP iter|LP it/n| mem |  dualbound   | primalbound  |  gap   
      1 |     0 |  5344 |     - | 108M|-1.600000e+07 |      --      |    Inf 

******************************************************************************
This program contains Ipopt, a library for large-scale nonlinear optimization.
 Ipopt is released as open source code under the Eclipse Public License (EPL).
         For more information visit http://projects.coin-or.org/Ipopt
******************************************************************************

q     1 |     0 |  5344 |     - | 108M|-1.600000e+07 |-8.732316e+06 |  83.23%
      1 |     0 |  5344 |     - | 108M|-1.600000e+07 |-8.732316e+06 |  83.23%
      1 |     0 |  5344 |     - | 108M|-1.600000e+07 |-8.732316e+06 |  83.23%
      1 |     0 | 58784 |     - | 108M|-1.600000e+07 |-8.732316e+06 |  83.23%
      1 |     0 | 60068 |     - | 108M|-1.600000e+07 |-8.732316e+06 |  83.23%
      1 |     2 | 60068 |     - | 108M|-1.600000e+07 |-8.732316e+06 |  83.23%
    100 |    99 |200425 |1957.5 | 181M|-1.600000e+07 |-8.732316e+06 |  83.23%
    200 |   199 |224526 |1095.0 | 247M|-1.600000e+07 |-8.732316e+06 |  83.23%
    300 |   299 |236307 | 768.2 | 315M|-1.600000e+07 |-8.732316e+06 |  83.23%
    400 |   399 |249036 | 607.5 | 395M|-1.600000e+07 |-8.732316e+06 |  83.23%
    500 |   499 |257320 | 502.4 | 461M|-1.600000e+07 |-8.732316e+06 |  83.23%
    600 |   599 |264641 | 430.7 | 532M|-1.600000e+07 |-8.732316e+06 |  83.23%
    700 |   699 |271662 | 379.2 | 610M|-1.600000e+07 |-8.732316e+06 |  83.23%
    800 |   799 |276156 | 337.3 | 697M|-1.600000e+07 |-8.732316e+06 |  83.23%
  node  | left  |LP iter|LP it/n| mem |  dualbound   | primalbound  |  gap   
    900 |   899 |282217 | 306.6 | 734M|-1.600000e+07 |-8.732316e+06 |  83.23%
   1000 |   999 |290089 | 283.7 | 830M|-1.600000e+07 |-8.732316e+06 |  83.23%
   1100 |  1099 |300289 | 267.2 | 867M|-1.600000e+07 |-8.732316e+06 |  83.23%
   1200 |  1199 |309256 | 252.4 | 975M|-1.600000e+07 |-8.732316e+06 |  83.23%
   1300 |  1299 |314593 | 237.1 |1012M|-1.600000e+07 |-8.732316e+06 |  83.23%
   1400 |  1399 |318724 | 223.1 |1134M|-1.600000e+07 |-8.732316e+06 |  83.23%
   1500 |  1499 |324119 | 211.8 |1171M|-1.600000e+07 |-8.732316e+06 |  83.23%
   1600 |  1599 |328820 | 201.5 |1208M|-1.600000e+07 |-8.732316e+06 |  83.23%
   1700 |  1699 |336521 | 194.2 |1348M|-1.600000e+07 |-8.732316e+06 |  83.23%
   1800 |  1799 |340295 | 185.5 |1385M|-1.600000e+07 |-8.732316e+06 |  83.23%
   1900 |  1899 |346383 | 178.9 |1422M|-1.600000e+07 |-8.732316e+06 |  83.23%
   2000 |  1999 |350252 | 171.9 |1459M|-1.600000e+07 |-8.732316e+06 |  83.23%
   2100 |  2099 |357199 | 167.0 |1618M|-1.600000e+07 |-8.732316e+06 |  83.23%
   2200 |  2199 |362516 | 161.8 |1656M|-1.600000e+07 |-8.732316e+06 |  83.23%
   2300 |  2299 |365319 | 156.0 |1693M|-1.600000e+07 |-8.732316e+06 |  83.23%
  node  | left  |LP iter|LP it/n| mem |  dualbound   | primalbound  |  gap   
   2400 |  2399 |373775 | 153.0 |1730M|-1.600000e+07 |-8.732316e+06 |  83.23%
   2500 |  2499 |378729 | 148.9 |1914M|-1.600000e+07 |-8.732316e+06 |  83.23%
   2600 |  2599 |381295 | 144.2 |1951M|-1.600000e+07 |-8.732316e+06 |  83.23%
   2700 |  2699 |388317 | 141.4 |1988M|-1.600000e+07 |-8.732316e+06 |  83.23%
   2800 |  2799 |390803 | 137.3 |2025M|-1.600000e+07 |-8.732316e+06 |  83.23%
   2900 |  2899 |394457 | 133.8 |2062M|-1.600000e+07 |-8.732316e+06 |  83.23%
   3000 |  2999 |398994 | 130.8 |2276M|-1.600000e+07 |-8.732316e+06 |  83.23%
   3100 |  3099 |404164 | 128.3 |2313M|-1.600000e+07 |-8.732316e+06 |  83.23%
   3200 |  3199 |407010 | 125.2 |2350M|-1.600000e+07 |-8.732316e+06 |  83.23%
   3300 |  3299 |410504 | 122.4 |2387M|-1.600000e+07 |-8.732316e+06 |  83.23%
   3400 |  3399 |415873 | 120.4 |2424M|-1.600000e+07 |-8.732316e+06 |  83.23%
   3500 |  3499 |423246 | 119.1 |2504M|-1.600000e+07 |-8.732316e+06 |  83.23%
   3600 |  3599 |426535 | 116.7 |2710M|-1.600000e+07 |-8.732316e+06 |  83.23%
   3700 |  3699 |431367 | 114.8 |2747M|-1.600000e+07 |-8.732316e+06 |  83.23%
   3800 |  3799 |437314 | 113.4 |2784M|-1.600000e+07 |-8.732316e+06 |  83.23%
  node  | left  |LP iter|LP it/n| mem |  dualbound   | primalbound  |  gap   
   3900 |  3899 |442268 | 111.7 |2821M|-1.600000e+07 |-8.732316e+06 |  83.23%
   4000 |  3999 |449614 | 110.8 |2859M|-1.600000e+07 |-8.732316e+06 |  83.23%
   4100 |  4099 |453166 | 108.9 |2896M|-1.600000e+07 |-8.732316e+06 |  83.23%
   4200 |  4199 |458608 | 107.6 |2933M|-1.600000e+07 |-8.732316e+06 |  83.23%
   4300 |  4299 |463911 | 106.4 |3224M|-1.600000e+07 |-8.732316e+06 |  83.23%
   4400 |  4399 |468992 | 105.1 |3261M|-1.600000e+07 |-8.732316e+06 |  83.23%
   4500 |  4499 |475492 | 104.2 |3298M|-1.600000e+07 |-8.732316e+06 |  83.23%
   4600 |  4599 |478751 | 102.7 |3335M|-1.600000e+07 |-8.732316e+06 |  83.23%
   4700 |  4699 |482425 | 101.3 |3372M|-1.600000e+07 |-8.732316e+06 |  83.23%
   4800 |  4799 |487467 | 100.2 |3409M|-1.600000e+07 |-8.732316e+06 |  83.23%
   4900 |  4899 |492349 |  99.1 |3446M|-1.600000e+07 |-8.732316e+06 |  83.23%
   5000 |  4999 |495224 |  97.7 |3484M|-1.600000e+07 |-8.732316e+06 |  83.23%
   5100 |  5099 |500976 |  96.9 |3825M|-1.600000e+07 |-8.732316e+06 |  83.23%
   5200 |  5199 |505353 |  95.9 |3862M|-1.600000e+07 |-8.732316e+06 |  83.23%
   5300 |  5299 |508362 |  94.7 |3899M|-1.600000e+07 |-8.732316e+06 |  83.23%
  node  | left  |LP iter|LP it/n| mem |  dualbound   | primalbound  |  gap   
   5400 |  5399 |512291 |  93.7 |3936M|-1.600000e+07 |-8.732316e+06 |  83.23%
   5500 |  5499 |518635 |  93.1 |3974M|-1.600000e+07 |-8.732316e+06 |  83.23%
   5600 |  5599 |524603 |  92.5 |4011M|-1.600000e+07 |-8.732316e+06 |  83.23%
   5700 |  5699 |526877 |  91.3 |4048M|-1.600000e+07 |-8.732316e+06 |  83.23%
   5800 |  5799 |532980 |  90.8 |4085M|-1.600000e+07 |-8.732316e+06 |  83.23%
   5900 |  5899 |536054 |  89.7 |4122M|-1.600000e+07 |-8.732316e+06 |  83.23%
   6000 |  5999 |539083 |  88.8 |4159M|-1.600000e+07 |-8.732316e+06 |  83.23%
   6100 |  6099 |544055 |  88.1 |4562M|-1.600000e+07 |-8.732316e+06 |  83.23%
   6200 |  6199 |545408 |  86.9 |4599M|-1.600000e+07 |-8.732316e+06 |  83.23%
   6300 |  6299 |549323 |  86.2 |4636M|-1.600000e+07 |-8.732316e+06 |  83.23%
   6400 |  6399 |555846 |  85.8 |4673M|-1.600000e+07 |-8.732316e+06 |  83.23%
   6500 |  6499 |560082 |  85.2 |4710M|-1.600000e+07 |-8.732316e+06 |  83.23%
   6600 |  6599 |563706 |  84.4 |4747M|-1.600000e+07 |-8.732316e+06 |  83.23%
   6700 |  6699 |568971 |  83.9 |4784M|-1.600000e+07 |-8.732316e+06 |  83.23%
   6800 |  6799 |574530 |  83.5 |4821M|-1.600000e+07 |-8.732316e+06 |  83.23%
  node  | left  |LP iter|LP it/n| mem |  dualbound   | primalbound  |  gap   
   6900 |  6899 |577587 |  82.8 |4858M|-1.600000e+07 |-8.732316e+06 |  83.23%
   7000 |  6999 |580832 |  82.0 |4896M|-1.600000e+07 |-8.732316e+06 |  83.23%
   7100 |  7099 |584777 |  81.4 |4933M|-1.600000e+07 |-8.732316e+06 |  83.23%
   7200 |  7199 |589277 |  80.9 |4970M|-1.600000e+07 |-8.732316e+06 |  83.23%
   7300 |  7299 |593797 |  80.4 |5446M|-1.600000e+07 |-8.732316e+06 |  83.23%
   7400 |  7399 |598631 |  80.0 |5483M|-1.600000e+07 |-8.732316e+06 |  83.23%
   7500 |  7499 |601762 |  79.4 |5520M|-1.600000e+07 |-8.732316e+06 |  83.23%
   7600 |  7599 |605773 |  78.8 |5557M|-1.600000e+07 |-8.732316e+06 |  83.23%
   7700 |  7699 |610382 |  78.4 |5594M|-1.600000e+07 |-8.732316e+06 |  83.23%
   7800 |  7799 |613463 |  77.8 |5631M|-1.600000e+07 |-8.732316e+06 |  83.23%
   7900 |  7899 |617363 |  77.3 |5668M|-1.600000e+07 |-8.732316e+06 |  83.23%
   8000 |  7999 |620055 |  76.7 |5705M|-1.600000e+07 |-8.732316e+06 |  83.23%
   8100 |  8099 |621139 |  75.9 |5743M|-1.600000e+07 |-8.732316e+06 |  83.23%
   8200 |  8199 |624129 |  75.3 |5780M|-1.600000e+07 |-8.732316e+06 |  83.23%
   8300 |  8299 |629387 |  75.0 |5817M|-1.600000e+07 |-8.732316e+06 |  83.23%
  node  | left  |LP iter|LP it/n| mem |  dualbound   | primalbound  |  gap   
   8400 |  8399 |631896 |  74.4 |5854M|-1.600000e+07 |-8.732316e+06 |  83.23%
   8500 |  8499 |635015 |  73.9 |5891M|-1.600000e+07 |-8.732316e+06 |  83.23%
   8600 |  8599 |639148 |  73.6 |5928M|-1.600000e+07 |-8.732316e+06 |  83.23%
   8700 |  8699 |641958 |  73.0 |5965M|-1.600000e+07 |-8.732316e+06 |  83.23%
   8800 |  8799 |645073 |  72.6 |6529M|-1.600000e+07 |-8.732316e+06 |  83.23%
   8900 |  8899 |648566 |  72.1 |6566M|-1.600000e+07 |-8.732316e+06 |  83.23%
   9000 |  8999 |649995 |  71.5 |6603M|-1.600000e+07 |-8.732316e+06 |  83.23%
   9100 |  9099 |653015 |  71.0 |6640M|-1.600000e+07 |-8.732316e+06 |  83.23%
   9200 |  9199 |656863 |  70.7 |6677M|-1.600000e+07 |-8.732316e+06 |  83.23%
   9300 |  9299 |659142 |  70.2 |6714M|-1.600000e+07 |-8.732316e+06 |  83.23%
   9400 |  9399 |664752 |  70.0 |6751M|-1.600000e+07 |-8.732316e+06 |  83.23%

SCIP Status        : solving was interrupted [time limit reached]
Solving Time (sec) : 43223.31
Solving Nodes      : 9430
Primal Bound       : -8.73231563432937e+06 (2 solutions)
Dual Bound         : -1.59999999999998e+07
Gap                : 83.23 %
  [nonlinear] <nonlin>: ((1.000000 * <_var0_>) + (1.000000 * <_var1_>) + (1.000000 * <_var2_>) + (1.000000 * <_var3_>) + (1.000000 * <_var4_>) + (1.000000 * <_var5_>) + (1.000000 * <_var6_>) + (1.000000 * <_var7_>) + (1.000000 * <_var8_>) + (1.000000 * <_var9_>) + (1.000000 * <_var10_>) + (1.000000 * <_var11_>) + (1.000000 * <_var12_>) + (1.000000 * <_var13_>) + (1.000000 * <_var14_>) + (1.000000 * <_var15_>) + (1.000000 * <_var16_>) + (1.000000 * <_var17_>) + (1.000000 * <_var18_>) + (1.000000 * <_var19_>)) <= 40;
violation: right hand side is violated by 2.69999997470904e-06 (scaled: 2.69999997470904e-06)
best solution is not feasible in original problem
WARNING: Not solved to optimality, status: UserLimit
